
-4.0
-3.9
-3.9
-3.9
-3.8
-3.8
-3.8
-3.8
-3.6
-3.6
-3.3
-3.2
-3.2
-3.0
-3.0
-3.0
-3.0
-3.0
-3.0
-3.0
-4.15
-4.0
-3.85
-3.8
-3.8
-3.55
-3.5
-3.3
-3.25
-3.2
-3.2
-3.2
-3.15
-3.1
-3.05
-3.05
-3.0
-3.0
-3.0
-3.0
-3.0
-3.0
-3.0
-3.0
-3.0
-3.0
-3.0
-3.0
-3.0
-3.0
-3.0
-3.0
-3.0
-3.0
-3.0
-3.0
-2.95
-4.05
-3.8
-3.8
-3.7
-3.7
-3.55
-3.5
-3.5
-3.45
-3.45
-3.25
-3.2
-3.2
-3.15
-3.15
-3.05
-3.0
-3.0
-3.0
-2.95
-2.95
-2.95
-2.95
-2.95
-2.95
-2.95
-2.95
-2.95
-2.95
-2.95
-2.95